c graph converted from Delauney Triangulation format
c weights on edges removed (lost)
x low 0.00
p edge 76 218
n 0 1.00
n 7 1.00
n 2 1.00
n 4 1.00
n 5 1.00
n 1 1.00
n 3 1.00
n 11 1.00
n 14 1.00
n 34 1.00
n 37 1.00
n 74 1.00
n 38 1.00
n 75 1.00
n 15 1.00
n 6 1.00
n 21 1.00
n 16 1.00
n 12 1.00
n 8 1.00
n 13 1.00
n 9 1.00
n 10 1.00
n 17 1.00
n 19 1.00
n 18 1.00
n 20 1.00
n 23 1.00
n 30 1.00
n 24 1.00
n 22 1.00
n 25 1.00
n 31 1.00
n 29 1.00
n 26 1.00
n 27 1.00
n 28 1.00
n 44 1.00
n 39 1.00
n 35 1.00
n 36 1.00
n 32 1.00
n 33 1.00
n 40 1.00
n 42 1.00
n 41 1.00
n 43 1.00
n 46 1.00
n 57 1.00
n 61 1.00
n 53 1.00
n 47 1.00
n 45 1.00
n 48 1.00
n 54 1.00
n 52 1.00
n 49 1.00
n 50 1.00
n 51 1.00
n 67 1.00
n 62 1.00
n 58 1.00
n 59 1.00
n 55 1.00
n 56 1.00
n 63 1.00
n 65 1.00
n 60 1.00
n 64 1.00
n 66 1.00
n 69 1.00
n 70 1.00
n 68 1.00
n 71 1.00
n 72 1.00
n 73 1.00
e 0 7
e 0 2
e 0 4
e 0 5
e 0 1
e 1 3
e 1 5
e 1 11
e 1 14
e 1 34
e 1 37
e 1 74
e 2 38
e 2 75
e 2 15
e 2 7
e 3 5
e 3 6
e 3 11
e 4 7
e 4 21
e 4 16
e 4 12
e 4 8
e 4 5
e 5 8
e 5 13
e 5 9
e 5 6
e 6 9
e 6 11
e 7 15
e 7 21
e 8 12
e 8 10
e 8 13
e 9 17
e 9 13
e 9 19
e 9 11
e 9 14
e 10 12
e 10 16
e 10 18
e 10 13
e 11 14
e 12 16
e 13 18
e 13 17
e 14 19
e 14 20
e 14 23
e 14 34
e 15 38
e 15 30
e 15 21
e 16 24
e 16 21
e 16 22
e 16 18
e 17 18
e 17 22
e 17 25
e 17 19
e 18 22
e 19 25
e 19 20
e 20 25
e 20 23
e 21 30
e 21 24
e 22 24
e 22 31
e 22 25
e 23 25
e 23 29
e 23 26
e 23 34
e 24 30
e 24 27
e 24 31
e 25 31
e 25 28
e 25 29
e 26 29
e 26 34
e 27 30
e 27 44
e 27 39
e 27 35
e 27 31
e 28 31
e 28 36
e 28 32
e 28 29
e 29 32
e 29 34
e 30 38
e 30 44
e 31 35
e 31 33
e 31 36
e 32 40
e 32 36
e 32 42
e 32 34
e 32 37
e 33 35
e 33 39
e 33 41
e 33 36
e 34 37
e 35 39
e 36 41
e 36 40
e 37 42
e 37 43
e 37 46
e 37 57
e 37 74
e 38 75
e 38 61
e 38 53
e 38 44
e 39 47
e 39 44
e 39 45
e 39 41
e 40 41
e 40 45
e 40 48
e 40 42
e 41 45
e 42 48
e 42 43
e 43 48
e 43 46
e 44 53
e 44 47
e 45 47
e 45 54
e 45 48
e 46 48
e 46 52
e 46 49
e 46 57
e 47 53
e 47 50
e 47 54
e 48 54
e 48 51
e 48 52
e 49 52
e 49 57
e 50 53
e 50 67
e 50 62
e 50 58
e 50 54
e 51 54
e 51 59
e 51 55
e 51 52
e 52 55
e 52 57
e 53 61
e 53 67
e 54 58
e 54 56
e 54 59
e 55 63
e 55 59
e 55 65
e 55 57
e 55 60
e 56 58
e 56 62
e 56 64
e 56 59
e 57 60
e 57 74
e 58 62
e 59 64
e 59 63
e 60 65
e 60 66
e 60 69
e 60 74
e 61 75
e 61 67
e 62 70
e 62 67
e 62 68
e 62 64
e 63 64
e 63 68
e 63 71
e 63 65
e 64 68
e 65 71
e 65 66
e 66 71
e 66 69
e 67 75
e 67 70
e 68 70
e 68 71
e 69 71
e 69 72
e 69 73
e 69 74
e 70 75
e 70 71
e 71 75
e 71 72
e 72 75
e 72 73
e 73 74
